p cnf 360 521
-13 -14 0
-12 -14 0
-11 -14 0
-10 -14 0
-9 -14 0
-8 -14 0
-14 -7 0
-6 -14 0
7 9 8 6 10 11 12 13 14 0
-20 19 0
-19 20 0
-21 20 0
-20 21 0
-19 21 0
-21 19 0
-24 23 0
-23 24 0
-25 24 0
-24 25 0
-23 25 0
-25 23 0
27 -28 0
28 -27 0
28 -29 0
29 -28 0
29 -27 0
27 -29 0
-32 31 0
-31 32 0
-33 32 0
-32 33 0
-31 33 0
-33 31 0
-36 35 0
-35 36 0
-37 36 0
-36 37 0
-35 37 0
-37 35 0
-40 39 0
-39 40 0
-41 40 0
-40 41 0
-39 41 0
-41 39 0
-44 43 0
-43 44 0
-45 44 0
-44 45 0
-43 45 0
-45 43 0
-48 47 0
-47 48 0
-49 48 0
-48 49 0
-47 49 0
-49 47 0
-48 -52 0
-44 -52 0
-40 -52 0
-36 -52 0
-32 -52 0
-52 -28 0
-24 -52 0
-20 -52 0
28 24 20 32 36 40 44 48 52 0
-62 -61 0
61 62 0
-62 -63 0
63 62 0
63 -64 0
64 -63 0
64 -61 0
61 -64 0
-67 -66 0
66 67 0
-67 -68 0
68 67 0
68 -69 0
69 -68 0
69 -66 0
66 -69 0
-71 -72 0
72 71 0
-73 -72 0
72 73 0
-74 73 0
-73 74 0
-71 74 0
-74 71 0
-76 -77 0
77 76 0
-78 -77 0
77 78 0
-79 78 0
-78 79 0
-76 79 0
-79 76 0
-82 -81 0
81 82 0
-82 -83 0
83 82 0
83 -84 0
84 -83 0
84 -81 0
81 -84 0
-87 -86 0
86 87 0
-87 -88 0
88 87 0
88 -89 0
89 -88 0
89 -86 0
86 -89 0
-92 -91 0
91 92 0
-92 -93 0
93 92 0
93 -94 0
94 -93 0
94 -91 0
91 -94 0
-97 -96 0
96 97 0
-97 -98 0
98 97 0
98 -99 0
99 -98 0
99 -96 0
96 -99 0
-98 -102 0
-102 -93 0
-88 -102 0
-83 -102 0
-78 -102 0
-73 -102 0
-68 -102 0
-63 -102 0
63 68 73 78 83 88 93 98 102 0
-111 -112 0
112 111 0
-113 -112 0
112 113 0
-114 113 0
-113 114 0
-111 114 0
-114 111 0
-117 -116 0
116 117 0
-117 -118 0
118 117 0
118 -119 0
119 -118 0
119 -116 0
116 -119 0
-121 -122 0
122 121 0
-123 -122 0
122 123 0
-124 123 0
-123 124 0
-121 124 0
-124 121 0
-127 -126 0
126 127 0
-127 -128 0
128 127 0
128 -129 0
129 -128 0
129 -126 0
126 -129 0
-131 -132 0
132 131 0
-133 -132 0
132 133 0
-134 133 0
-133 134 0
-131 134 0
-134 131 0
-137 -136 0
136 137 0
-137 -138 0
138 137 0
138 -139 0
139 -138 0
139 -136 0
136 -139 0
-141 -142 0
142 141 0
-143 -142 0
142 143 0
-144 143 0
-143 144 0
-141 144 0
-144 141 0
-147 -146 0
146 147 0
-147 -148 0
148 147 0
148 -149 0
149 -148 0
149 -146 0
146 -149 0
-152 -148 0
-143 -152 0
-138 -152 0
-133 -152 0
-128 -152 0
-123 -152 0
-118 -152 0
-113 -152 0
118 128 123 113 133 138 143 148 152 0
-162 -161 0
161 162 0
-162 -163 0
163 162 0
163 -164 0
164 -163 0
164 -161 0
161 -164 0
-167 -166 0
166 167 0
-167 -168 0
168 167 0
168 -169 0
169 -168 0
169 -166 0
166 -169 0
-171 -172 0
172 171 0
-173 -172 0
172 173 0
-174 173 0
-173 174 0
-171 174 0
-174 171 0
-176 -177 0
177 176 0
-178 -177 0
177 178 0
-179 178 0
-178 179 0
-176 179 0
-179 176 0
-182 -181 0
181 182 0
-182 -183 0
183 182 0
183 -184 0
184 -183 0
184 -181 0
181 -184 0
-187 -186 0
186 187 0
-187 -188 0
188 187 0
188 -189 0
189 -188 0
189 -186 0
186 -189 0
-192 -191 0
191 192 0
-192 -193 0
193 192 0
193 -194 0
194 -193 0
194 -191 0
191 -194 0
-197 -196 0
196 197 0
-197 -198 0
198 197 0
198 -199 0
199 -198 0
199 -196 0
196 -199 0
-198 -202 0
-193 -202 0
-188 -202 0
-183 -202 0
-178 -202 0
-173 -202 0
-168 -202 0
-202 -163 0
163 168 173 178 183 188 193 198 202 0
-212 -211 0
211 212 0
-212 -213 0
213 212 0
213 -214 0
214 -213 0
214 -211 0
211 -214 0
-216 -217 0
217 216 0
-218 -217 0
217 218 0
-219 218 0
-218 219 0
-216 219 0
-219 216 0
-222 -221 0
221 222 0
-222 -223 0
223 222 0
223 -224 0
224 -223 0
224 -221 0
221 -224 0
-227 -226 0
226 227 0
-227 -228 0
228 227 0
228 -229 0
229 -228 0
229 -226 0
226 -229 0
-232 -231 0
231 232 0
-232 -233 0
233 232 0
233 -234 0
234 -233 0
234 -231 0
231 -234 0
-237 -236 0
236 237 0
-237 -238 0
238 237 0
238 -239 0
239 -238 0
239 -236 0
236 -239 0
-242 -241 0
241 242 0
-242 -243 0
243 242 0
243 -244 0
244 -243 0
244 -241 0
241 -244 0
-246 -247 0
247 246 0
-248 -247 0
247 248 0
-249 248 0
-248 249 0
-246 249 0
-249 246 0
-248 -252 0
-252 -243 0
-238 -252 0
-233 -252 0
-228 -252 0
-223 -252 0
-218 -252 0
-213 -252 0
213 223 218 228 233 238 243 248 252 0
-262 -261 0
261 262 0
-262 -263 0
263 262 0
263 -264 0
264 -263 0
264 -261 0
261 -264 0
-267 -266 0
266 267 0
-267 -268 0
268 267 0
268 -269 0
269 -268 0
269 -266 0
266 -269 0
-272 -271 0
271 272 0
-272 -273 0
273 272 0
273 -274 0
274 -273 0
274 -271 0
271 -274 0
-277 -276 0
276 277 0
-277 -278 0
278 277 0
278 -279 0
279 -278 0
279 -276 0
276 -279 0
-281 -282 0
282 281 0
-283 -282 0
282 283 0
-284 283 0
-283 284 0
-281 284 0
-284 281 0
-287 -286 0
286 287 0
-287 -288 0
288 287 0
288 -289 0
289 -288 0
289 -286 0
286 -289 0
-291 -292 0
292 291 0
-293 -292 0
292 293 0
-294 293 0
-293 294 0
-291 294 0
-294 291 0
-296 -297 0
297 296 0
-298 -297 0
297 298 0
-299 298 0
-298 299 0
-296 299 0
-299 296 0
-298 -302 0
-293 -302 0
-288 -302 0
-283 -302 0
-302 -278 0
-273 -302 0
-268 -302 0
-263 -302 0
263 268 273 278 283 288 293 298 302 0
-312 -311 0
311 312 0
-312 -313 0
313 312 0
313 -314 0
-313 314 0
314 -311 -315 0
311 -314 -315 0
315 -314 -311 0
311 314 315 0
-317 -316 0
316 317 0
-317 -318 0
318 317 0
318 -319 0
-318 319 0
319 -316 -320 0
316 -319 -320 0
320 -319 -316 0
316 319 320 0
-322 -321 0
321 322 0
-322 -323 0
323 322 0
323 -324 0
324 -323 0
324 -321 0
321 -324 0
-327 -326 0
326 327 0
-327 -328 0
328 327 0
328 -329 0
329 -328 0
329 -326 0
326 -329 0
-332 -331 0
332 331 0
-332 -333 0
332 333 0
333 -334 0
-333 334 0
-331 334 -335 0
331 -334 -335 0
-331 -334 335 0
331 334 335 0
-337 -336 0
336 337 0
-337 -338 0
338 337 0
338 -339 0
339 -338 0
339 -336 0
336 -339 0
-341 -342 0
342 341 0
-343 -342 0
342 343 0
-344 343 0
-343 344 0
344 -341 -345 0
-344 341 -345 0
-344 -341 345 0
345 341 344 0
-347 -346 0
346 347 0
-347 -348 0
348 347 0
348 -349 0
349 -348 0
349 -346 0
346 -349 0
345 -351 0
335 -351 0
320 -351 0
315 -351 0
351 -335 -315 -345 -320 0
-348 -352 0
-343 -352 0
-338 -352 0
-333 -352 0
-328 -352 0
-323 -352 0
-318 -352 0
-313 -352 0
313 318 323 328 333 338 343 348 352 0
314 315 0
-341 345 0
319 320 0
334 335 0
